COLUMNS

passenger_count
pickup_ID
dropoff_ID
request_time_sec
pickup_district
dropoff_district
LDuals
IDuals
vehicle_ID
pick_position
drop_position

REQUESTS_INFO
1      408       232       29343     299       266       174       174       2         1         2         
3      888       926       29200     290       290       360       360       3         1         2         
1      333       558       29333     119       189       218       218       9         1         4         
3      366       531       29357     299       189       183       183       44        1         2         
3      849       651       29366     291       189       245       245       59        1         2         
1      1168      599       29321     291       280       214.5     214.5     65        1         4         
1      501       172       29329     52        286       174       174       108       1         3         
1      1149      696       29361     291       189       181.5     181.5     119       1         3         
3      526       431       29362     52        52        113       113       123       1         2         
1      794       527       29314     290       52        193       193       134       1         4         
1      970       746       29316     290       290       0         0         138       1         4         
1      253       556       29193     206       199       325       325       159       1         2         
1      859       116       29333     290       9         183       183       169       1         3         
3      522       437       29322     52        100       179       179       191       1         2         
4      1004      894       29351     291       291       295       295       216       1         2         
1      388       718       29326     299       189       194       194       244       1         4         
1      259       578       29346     87        189       126       126       248       1         2         
1      794       395       29293     290       100       214       214       337       1         5         
1      838       624       29366     290       189       198       198       341       1         2         
2      969       1264      29196     290       192       394       394       345       1         2         
1      463       171       29358     168       286       129       129       357       1         3         
1      350       135       29337     127       286       183       183       364       1         3         
1      308       556       29363     127       199       193       193       367       1         3         
2      875       697       29301     291       189       286       286       372       1         2         
4      771       604       29368     290       189       157       157       381       1         2         
2      366       531       29357     299       189       183       183       405       1         2         
1      938       670       29345     291       280       205       205       410       1         4         
1      968       697       29345     290       189       222       222       437       1         2         
1      860       669       29355     290       280       182       182       478       1         3         
1      236       371       29303     87        52        193       193       479       1         3         
1      839       1089      29326     290       291       214       214       513       1         3         
1      220       232       29362     87        266       116       116       518       1         2         
3      929       1032      29202     290       84        385       385       520       1         2         
2      863       906       29281     290       290       305       305       544       1         2         
1      1201      838       29363     84        290       208       208       547       1         2         
3      135       134       29351     286       9         118       118       575       1         2         
1      771       535       29294     290       189       194       194       614       1         2         
3      903       903       29336     290       290       219       219       674       1         2         
1      1036      992       29355     84        290       239       239       704       1         2         
1      875       1001      29336     291       291       163       163       717       1         2         
3      871       596       29343     291       131       178       178       720       1         3         
1      332       553       29360     87        189       177       177       735       1         3         
1      969       503       29314     290       52        162       162       755       1         4         
1      794       894       29319     290       291       204       204       776       1         4         
1      781       628       29361     291       189       154       154       806       1         3         
1      333       580       29287     119       189       264       264       817       1         2         
1      838       48        29285     290       98        259       259       826       1         2         
3      801       755       29340     291       131       178       178       835       1         2         
1      699       649       29340     290       189       132       132       857       1         3         
3      439       904       29344     189       290       119       119       876       1         3         
1      860       268       29267     290       299       270       270       953       1         3         
1      476       188       29343     52        286       205       205       1011      1         3         
3      907       948       29314     290       290       284       284       1055      1         2         
1      840       973       29357     290       84        162       162       1068      1         3         
1      814       462       29350     290       189       116       116       1085      1         3         
1      864       652       29347     290       189       205       205       1093      1         2         
1      791       882       29362     290       290       153       153       1103      1         2         
3      816       10        29200     290       98        346       346       1108      1         2         
3      909       1603      29209     290       296       391       391       1126      1         2         
3      871       596       29343     291       131       200       200       1127      1         4         
1      847       894       29344     291       291       189       189       1127      2         3         
3      841       676       29235     290       189       341       341       1143      1         2         
1      1022      693       29340     291       280       173       173       1174      1         4         
3      881       648       29279     290       189       275       275       1192      1         2         
2      801       755       29340     291       131       178       178       1194      1         2         
3      479       355       29354     52        119       177       177       1210      1         2         
3      969       604       29332     290       189       249       249       1229      1         3         
1      970       698       29341     290       189       210       210       1229      2         4         
1      549       698       29368     52        189       132       132       1234      1         2         
4      794       628       29352     290       189       192       192       1240      1         2         
3      886       737       29309     290       189       295       295       1248      1         2         
1      861       604       29354     290       189       214       214       1252      1         2         
3      841       527       28970     290       52        606       606       1255      1         2         
1      813       720       29312     290       290       224       224       1256      1         4         
3      813       720       29328     290       290       180       180       1256      2         3         
3      909       116       29275     290       9         325       325       1258      1         3         
1      1244      960       29359     192       291       207.5     207.5     1266      1         3         
1      801       669       29326     291       280       192       192       1285      1         2         
1      330       603       29316     127       189       247       247       1291      1         3         
1      1002      884       29305     291       290       278       278       1294      1         2         
1      937       652       29346     291       189       170       170       1298      1         4         
3      896       779       29232     291       131       362       362       1298      2         3         
3      276       621       29224     87        280       312       312       1302      1         2         
3      860       527       29348     290       52        210       210       1304      1         2         
1      1003      903       29311     291       290       286       286       1306      1         4         
3      984       716       29180     291       189       458       458       1324      1         2         
1      619       545       29327     131       52        166       166       1339      1         2         
2      1065      1002      29319     291       291       260       260       1381      1         2         
1      1131      760       29187     291       291       387       387       1385      1         2         
3      1065      1002      29319     291       291       260       260       1397      1         3         
1      1065      1010      29336     291       290       175       175       1397      2         4         
1      905       865       29272     290       290       257       257       1437      1         2         
3      874       651       29239     291       189       318       318       1440      1         2         
3      929       1032      29202     290       84        385       385       1449      1         2         
1      373       691       29347     119       131       151       151       1474      1         4         
1      1109      1192      29299     291       129       311       311       1478      1         3         
2      277       530       29302     87        189       145       145       1493      1         2         
1      568       134       29370     52        9         0         0         0         0         0         
1      654       650       29371     189       189       0         0         0         0         0         
1      1106      737       29371     291       189       0         0         0         0         0         
3      794       672       29371     290       189       0         0         0         0         0         
1      510       97        29372     199       9         0         0         0         0         0         
1      736       1000      29372     131       291       0         0         0         0         0         
3      673       604       29372     189       189       0         0         0         0         0         
3      673       604       29372     189       189       0         0         0         0         0         
1      556       459       29372     199       189       0         0         0         0         0         
1      549       650       29373     52        189       0         0         0         0         0         
1      439       647       29373     189       280       0         0         0         0         0         
1      106       421       29373     178       168       0         0         0         0         0         
1      840       558       29373     290       189       0         0         0         0         0         
1      842       63        29374     290       98        0         0         0         0         0         
2      859       924       29374     290       290       0         0         0         0         0         
1      461       742       29374     189       290       0         0         0         0         0         
1      669       626       29374     280       189       0         0         0         0         0         
1      766       602       29374     290       189       0         0         0         0         0         
1      181       556       29375     178       199       0         0         0         0         0         
2      354       452       29375     119       52        0         0         0         0         0         
1      527       46        29375     52        98        0         0         0         0         0         
1      191       62        29375     266       98        0         0         0         0         0         
1      816       575       29375     290       189       0         0         0         0         0         
4      246       289       29375     266       127       0         0         0         0         0         
2      791       488       29375     290       199       0         0         0         0         0         
1      34        696       29375     98        189       0         0         0         0         0         
1      738       599       29375     189       280       0         0         0         0         0         
3      923       578       29375     290       189       0         0         0         0         0         
3      923       578       29375     290       189       0         0         0         0         0         
3      458       726       29375     52        290       0         0         0         0         0         
3      458       726       29375     52        290       0         0         0         0         0         
1      1026      905       29376     291       290       0         0         0         0         0         
1      558       629       29376     189       189       0         0         0         0         0         
1      947       476       29376     290       52        0         0         0         0         0         
1      534       698       29376     199       189       0         0         0         0         0         
1      894       1023      29377     291       291       0         0         0         0         0         
1      229       415       29377     266       100       0         0         0         0         0         
1      769       558       29377     290       189       0         0         0         0         0         
1      860       881       29377     290       290       0         0         0         0         0         
1      213       284       29378     266       299       0         0         0         0         0         
1      325       550       29378     299       189       0         0         0         0         0         
1      357       576       29378     277       189       0         0         0         0         0         
2      499       603       29378     52        189       0         0         0         0         0         
1      802       1208      29378     291       192       0         0         0         0         0         
1      549       696       29378     52        189       0         0         0         0         0         
1      604       698       29378     189       189       0         0         0         0         0         
1      959       555       29379     291       199       0         0         0         0         0         
1      509       574       29380     199       189       0         0         0         0         0         
4      199       651       29380     178       189       0         0         0         0         0         
1      43        358       29380     9         168       0         0         0         0         0         
1      722       675       29380     290       189       0         0         0         0         0         
1      366       651       29380     299       189       0         0         0         0         0         
3      861       513       29380     290       199       0         0         0         0         0         
1      1253      788       29381     129       290       0         0         0         0         0         
3      632       719       29381     189       189       0         0         0         0         0         
3      632       719       29381     189       189       0         0         0         0         0         
3      413       523       29381     52        52        0         0         0         0         0         
2      392       693       29381     52        280       0         0         0         0         0         
3      413       523       29381     52        52        0         0         0         0         0         
1      527       720       29381     52        290       0         0         0         0         0         
2      645       438       29381     280       100       0         0         0         0         0         
1      479       498       29381     52        52        0         0         0         0         0         
1      486       649       29382     199       189       0         0         0         0         0         
1      668       859       29382     280       290       0         0         0         0         0         
3      970       699       29382     290       290       0         0         0         0         0         
1      969       669       29382     290       280       0         0         0         0         0         
1      904       580       29382     290       189       0         0         0         0         0         
3      578       20        29382     189       98        0         0         0         0         0         
3      578       20        29382     189       98        0         0         0         0         0         
2      970       699       29382     290       290       0         0         0         0         0         
1      948       627       29382     290       189       0         0         0         0         0         
1      236       560       29382     87        189       0         0         0         0         0         
1      859       697       29383     290       189       0         0         0         0         0         
1      717       884       29383     189       290       0         0         0         0         0         
1      690       252       29383     131       206       0         0         0         0         0         
1      633       628       29383     189       189       0         0         0         0         0         
1      287       352       29383     299       119       0         0         0         0         0         
1      939       604       29383     291       189       0         0         0         0         0         
1      577       171       29383     189       286       0         0         0         0         0         
3      860       721       29383     290       290       0         0         0         0         0         
2      860       721       29383     290       290       0         0         0         0         0         
1      883       1328      29384     290       129       0         0         0         0         0         
1      345       436       29384     299       100       0         0         0         0         0         
3      970       675       29384     290       189       0         0         0         0         0         
2      970       675       29384     290       189       0         0         0         0         0         
2      688       719       29384     131       189       0         0         0         0         0         
3      688       719       29384     131       189       0         0         0         0         0         
1      527       923       29385     52        290       0         0         0         0         0         
1      443       556       29385     168       199       0         0         0         0         0         
1      1265      1528      29386     192       296       0         0         0         0         0         
1      929       1264      29386     290       192       0         0         0         0         0         
1      367       135       29386     299       286       0         0         0         0         0         
3      780       817       29386     291       290       0         0         0         0         0         
3      780       817       29386     291       290       0         0         0         0         0         
1      582       506       29386     189       189       0         0         0         0         0         
1      731       620       29386     131       131       0         0         0         0         0         
1      437       559       29386     100       189       0         0         0         0         0         
1      575       531       29387     189       189       0         0         0         0         0         
3      617       289       29387     131       127       0         0         0         0         0         
3      462       648       29387     189       189       0         0         0         0         0         
2      462       648       29387     189       189       0         0         0         0         0         
1      297       296       29387     277       277       0         0         0         0         0         
1      905       605       29387     290       189       0         0         0         0         0         
1      440       580       29387     168       189       0         0         0         0         0         
1      971       1200      29387     290       84        0         0         0         0         0         
1      794       466       29387     290       199       0         0         0         0         0         
1      757       36        29387     131       98        0         0         0         0         0         
2      617       289       29387     131       127       0         0         0         0         0         
1      171       479       29388     286       52        0         0         0         0         0         
1      983       581       29388     291       189       0         0         0         0         0         
1      461       604       29388     189       189       0         0         0         0         0         
1      441       558       29388     168       189       0         0         0         0         0         
1      859       1045      29388     290       291       0         0         0         0         0         
2      702       1032      29388     290       84        0         0         0         0         0         
3      647       673       29389     280       189       0         0         0         0         0         
3      647       673       29389     280       189       0         0         0         0         0         
3      549       726       29389     52        290       0         0         0         0         0         
2      549       726       29389     52        290       0         0         0         0         0         
1      694       79        29389     189       98        0         0         0         0         0         
2      873       905       29389     291       290       0         0         0         0         0         
1      371       458       29389     52        52        0         0         0         0         0         
1      604       669       29390     189       280       0         0         0         0         0         
1      557       396       29390     189       119       0         0         0         0         0         
1      838       487       29390     290       199       0         0         0         0         0         
1      78        36        29390     9         98        0         0         0         0         0         
2      1090      669       29390     291       280       0         0         0         0         0         
2      1090      939       29390     291       291       0         0         0         0         0         
1      723       633       29390     290       189       0         0         0         0         0         
1      527       45        29390     52        98        0         0         0         0         0         
1      929       749       29390     290       290       0         0         0         0         0         
1      693       438       29390     280       100       0         0         0         0         0         
1      772       399       29390     290       168       0         0         0         0         0         
3      1301      1338      29390     192       129       0         0         0         0         0         
3      1301      1338      29390     192       129       0         0         0         0         0         
1      605       506       29391     189       189       0         0         0         0         0         
1      771       672       29391     290       189       0         0         0         0         0         
1      20        228       29391     98        266       0         0         0         0         0         
1      604       352       29391     189       119       0         0         0         0         0         
1      608       680       29391     189       290       0         0         0         0         0         
1      621       579       29391     280       189       0         0         0         0         0         
1      925       35        29391     290       98        0         0         0         0         0         
2      536       670       29391     189       280       0         0         0         0         0         
3      199       721       29391     178       290       0         0         0         0         0         
3      199       721       29391     178       290       0         0         0         0         0         
1      458       527       29392     52        52        0         0         0         0         0         
1      597       603       29392     131       189       0         0         0         0         0         
1      35        605       29392     98        189       0         0         0         0         0         
2      771       582       29392     290       189       0         0         0         0         0         
1      929       772       29392     290       290       0         0         0         0         0         
2      679       10        29392     290       98        0         0         0         0         0         
3      723       602       29392     290       189       0         0         0         0         0         
2      723       602       29392     290       189       0         0         0         0         0         
1      581       924       29392     189       290       0         0         0         0         0         
1      951       599       29393     290       280       0         0         0         0         0         
3      1023      695       29393     291       189       0         0         0         0         0         
1      805       603       29393     291       189       0         0         0         0         0         
1      1002      670       29393     291       280       0         0         0         0         0         
1      747       97        29393     290       9         0         0         0         0         0         
1      675       292       29393     189       87        0         0         0         0         0         
1      545       233       29394     52        206       0         0         0         0         0         
1      439       552       29394     189       189       0         0         0         0         0         
3      700       969       29394     290       290       0         0         0         0         0         
2      795       154       29394     290       286       0         0         0         0         0         
2      700       969       29394     290       290       0         0         0         0         0         
4      816       696       29394     290       189       0         0         0         0         0         
3      191       284       29394     266       299       0         0         0         0         0         
2      1076      673       29395     84        189       0         0         0         0         0         
1      865       396       29395     290       119       0         0         0         0         0         
1      350       687       29395     127       131       0         0         0         0         0         
1      1149      923       29395     291       290       0         0         0         0         0         
2      510       766       29395     199       290       0         0         0         0         0         
3      1076      673       29395     84        189       0         0         0         0         0         
1      1003      696       29396     291       189       0         0         0         0         0         
1      527       694       29396     52        189       0         0         0         0         0         
2      1026      881       29396     291       290       0         0         0         0         0         
1      691       699       29396     131       290       0         0         0         0         0         
1      328       439       29397     299       189       0         0         0         0         0         
1      392       567       29397     52        52        0         0         0         0         0         
1      152       35        29397     9         98        0         0         0         0         0         
1      716       624       29398     189       189       0         0         0         0         0         
1      727       672       29398     290       189       0         0         0         0         0         
1      1090      739       29398     291       189       0         0         0         0         0         
1      324       328       29398     299       299       0         0         0         0         0         
1      927       116       29398     290       9         0         0         0         0         0         
1      430       570       29398     52        52        0         0         0         0         0         
4      292       230       29399     87        266       0         0         0         0         0         
1      513       607       29399     199       189       0         0         0         0         0         
2      873       604       29399     291       189       0         0         0         0         0         
1      679       675       29399     290       189       0         0         0         0         0         
1      556       551       29399     199       189       0         0         0         0         0         
1      925       597       29399     290       131       0         0         0         0         0         
2      502       171       29399     52        286       0         0         0         0         0         
